NAME : netgen22-5_27
COMMENT : Generated using the function generateClusteredNetwork from the R-package netgen (Bossek,2015) - Number of clusters: 5
TYPE : TSP
DIMENSION : 22
EDGE_WEIGHT_TYPE : EUC_2D
NODE_COORD_SECTION
1 26.7645371737 22.2418527612
2 31.6869539478 20.9251173191
3 21.6658196327 27.1112343872
4 36.6606088481 17.1409504585
5 32.2587723701 27.9446081304
6 31.3363871434 28.4367306178
7 45.3741571263 38.5389242187
8 47.6009748868 45.8296253272
9 52.9972754248 45.2695448867
10 49.818410727 39.5721573805
11 78.2998777819 86.5412059599
12 74.3971984502 97.8635806911
13 81.6998907552 91.8981750269
14 78.432950195 86.9526714303
15 1.9227109638 69.1345232697
16 14.3988906366 59.8704415905
17 14.4581153524 62.6420201129
18 2.2259166739 56.3239986752
19 83.8292700627 10.264261578
20 95.3547936891 19.5946151855
21 96.7587932169 24.9215115357
22 74.4360297451 18.6372600703
EOF
